board = [|0,  |9,0|,  |34,0|, |4,0|,  0
         ||0,9|,  _, _, _, 0
         ||0,13|, _, _, _, 0
         ||0,13|, _, _, |11,0|, |3,0|
         |0,  |0,7|,  _, _, _
         |0,  |0,19|, _, _, _|];
         
vertical = [|1, 2, 9
            |1, 3, 34
            |1, 4, 4
            |4, 4, 11
            |4, 5, 3|];

horizontal = [|2, 1, 9
              |3, 1, 13
              |4, 1, 13
              |5, 2, 7
              |6, 2, 19|];